50 627
1 3
1 5
1 6
1 8
1 9
1 11
1 16
1 17
1 18
1 20
1 23
1 24
1 28
1 29
1 30
1 31
1 32
1 33
1 34
1 36
1 39
1 40
1 45
1 47
1 48
1 49
2 3
2 4
2 5
2 7
2 9
2 10
2 11
2 13
2 14
2 18
2 22
2 23
2 24
2 25
2 27
2 28
2 29
2 35
2 36
2 42
2 43
2 44
2 46
2 47
2 48
2 50
3 4
3 9
3 10
3 12
3 13
3 15
3 17
3 19
3 20
3 26
3 28
3 30
3 34
3 35
3 40
3 41
3 42
3 48
4 5
4 6
4 7
4 8
4 10
4 11
4 13
4 16
4 17
4 19
4 26
4 28
4 31
4 34
4 35
4 37
4 39
4 41
4 42
4 43
4 44
4 46
4 47
4 48
5 7
5 8
5 9
5 11
5 12
5 13
5 15
5 16
5 17
5 18
5 20
5 25
5 26
5 28
5 29
5 31
5 32
5 34
5 39
5 40
5 41
5 42
5 47
5 48
5 49
6 7
6 8
6 9
6 11
6 12
6 13
6 15
6 18
6 20
6 21
6 22
6 24
6 26
6 27
6 29
6 30
6 31
6 33
6 34
6 36
6 39
6 40
6 42
6 44
7 10
7 11
7 13
7 20
7 22
7 23
7 24
7 25
7 26
7 27
7 28
7 29
7 30
7 32
7 33
7 35
7 36
7 38
7 39
7 41
7 43
7 45
7 46
8 9
8 10
8 12
8 14
8 17
8 19
8 21
8 23
8 29
8 30
8 33
8 34
8 36
8 37
8 38
8 39
8 40
8 41
8 43
8 44
8 45
8 47
8 49
8 50
9 11
9 12
9 14
9 15
9 16
9 18
9 19
9 20
9 22
9 23
9 26
9 27
9 35
9 36
9 41
9 44
9 46
9 47
9 49
10 11
10 13
10 14
10 15
10 16
10 19
10 20
10 22
10 24
10 25
10 28
10 30
10 32
10 34
10 36
10 37
10 40
10 41
10 43
10 45
10 49
11 12
11 15
11 17
11 19
11 23
11 24
11 25
11 26
11 27
11 30
11 33
11 35
11 36
11 39
11 41
11 42
11 43
11 46
11 47
11 48
11 50
12 13
12 14
12 16
12 19
12 21
12 25
12 26
12 30
12 31
12 34
12 35
12 40
12 41
12 42
12 46
12 47
12 48
12 50
13 15
13 17
13 23
13 24
13 25
13 26
13 28
13 30
13 32
13 35
13 38
13 40
13 42
13 44
13 45
13 48
13 49
13 50
14 16
14 19
14 20
14 21
14 24
14 27
14 30
14 31
14 32
14 35
14 36
14 37
14 38
14 39
14 45
14 47
14 49
14 50
15 16
15 17
15 18
15 19
15 23
15 24
15 27
15 29
15 30
15 32
15 33
15 34
15 37
15 40
15 42
15 43
15 45
15 46
15 48
15 50
16 17
16 20
16 21
16 22
16 23
16 24
16 26
16 29
16 33
16 37
16 40
16 41
16 44
16 46
16 47
16 49
17 19
17 22
17 23
17 25
17 26
17 27
17 28
17 29
17 30
17 32
17 36
17 37
17 38
17 40
17 42
17 43
17 46
17 47
17 48
17 50
18 19
18 23
18 25
18 26
18 31
18 32
18 34
18 36
18 37
18 39
18 42
18 45
18 47
19 21
19 22
19 23
19 24
19 25
19 26
19 27
19 30
19 31
19 33
19 36
19 39
19 40
19 41
19 43
19 44
19 46
19 48
19 50
20 21
20 23
20 24
20 30
20 33
20 35
20 36
20 37
20 38
20 39
20 41
20 42
20 43
20 44
20 45
20 47
20 48
20 49
21 22
21 23
21 24
21 27
21 29
21 30
21 34
21 35
21 38
21 40
21 44
21 45
21 46
21 47
21 48
21 49
21 50
22 24
22 25
22 27
22 32
22 33
22 36
22 40
22 43
22 44
22 45
22 46
22 48
23 24
23 25
23 31
23 32
23 39
23 44
23 45
23 46
23 48
23 49
24 25
24 27
24 28
24 34
24 35
24 36
24 38
24 41
24 44
24 45
24 46
24 47
24 48
24 50
25 28
25 29
25 30
25 31
25 32
25 39
25 41
25 42
25 45
25 46
25 47
25 49
25 50
26 30
26 31
26 32
26 36
26 37
26 39
26 40
26 41
26 42
26 46
26 47
26 48
26 49
27 29
27 32
27 34
27 35
27 39
27 41
27 42
27 43
27 44
27 45
27 46
27 47
27 48
27 50
28 29
28 33
28 34
28 40
28 42
28 43
28 44
28 45
28 46
28 47
28 48
28 49
29 30
29 31
29 35
29 36
29 37
29 39
29 40
29 44
29 46
29 48
29 49
30 33
30 34
30 35
30 36
30 38
30 43
30 44
30 47
30 49
31 34
31 35
31 40
31 41
31 42
31 43
31 48
31 49
31 50
32 33
32 34
32 37
32 38
32 39
32 41
32 45
32 47
32 50
33 38
33 39
33 40
33 42
33 44
33 45
33 47
33 48
34 38
34 39
34 40
34 41
34 42
34 43
34 46
34 49
35 37
35 38
35 42
35 43
35 44
35 47
35 48
35 50
36 38
36 40
36 42
36 43
36 46
36 47
36 50
37 38
37 39
37 40
37 43
37 46
37 47
38 42
38 45
38 46
38 50
39 40
39 42
39 44
39 45
39 46
39 48
39 49
40 41
40 45
40 48
40 49
40 50
41 42
41 43
41 47
41 48
41 50
42 44
42 47
43 45
43 48
43 49
44 47
44 49
45 47
45 49
45 50
46 49
46 50
47 48
48 49
49 50
